Optimal - objective value 173200.00000000
      0 C0000000             900                       0
      1 C0000001 -1.1368684e-013                       0
      2 C0000002  -1.110223e-016                       0
      3 C0000003               0                       0
      4 C0000004               0                       0
      5 C0000005               0                       0
      6 C0000006               0                       0
      7 C0000007               0                       0
      8 C0000008               0                       0
      9 C0000009            1000                      20
     10 C0000010             900                       0
     11 C0000011  1.1368684e-013                       0
     12 C0000012               0                       0
     13 C0000013               1                       0
     14 C0000014              -1                       0
     15 C0000015             400                       0
     16 C0000016             -50                       0
     17 C0000017               0                       0
     18 C0000018               1                       0
     19 C0000019               0                       0
     20 C0000020               0                      56
     21 C0000021            -100                       0
     22 C0000022               0                       0
     23 C0000023               1                       0
     24 C0000024               0                       0
     25 C0000025            1600                      44
     26 C0000026               0                       0
     27 C0000027               0                       0
     28 C0000028               0                       0
     29 C0000029               1                       0
     30 C0000030               1                       0
     31 C0000031               0                       0
     32 C0000032             400                       0
     33 C0000033             -50                       0
     34 C0000034               0                       0
     35 C0000035               1                       0
     36 C0000036              -1                       0
     37 C0000037  1.4210855e-014                      56
     38 C0000038            -100                       0
     39 C0000039               0                       0
     40 C0000040               1                       0
     41 C0000041              -1                       0
     42 C0000042             600                      44
     43 C0000043               0                       0
     44 C0000044               0                     -24
     45 C0000045               0                       0
     46 C0000046               0                       0
     47 C0000047               0                       0
     48 C0000048             400                       0
     49 C0000049             -50                       0
     50 C0000050               0                       0
     51 C0000051               1                       0
     52 C0000052              -1                       0
     53 C0000053               0                      56
     54 C0000054            -100                       0
     55 C0000055               0                       0
     56 C0000056               1                       0
     57 C0000057              -1                       0
     58 C0000058             600                      44
     59 C0000059  -1.110223e-016                       0
     60 C0000060  -1.110223e-016                       0
     61 C0000061               0                       0
     62 C0000062              -1                       0
     63 C0000063               0                       0
     64 C0000064              -1                       0
     65 C0000065              -1                       0
     66 C0000066              -1                       0
     67 C0000067               0                       0
     68 C0000068               0                       0
     69 C0000069               0                       0
     70 C0000070               0                       0
     71 C0000071               0                       0
     72 C0000072               0                       0
     73 C0000073               0                       0
     74 C0000074               0                       0
     75 C0000075              -1                       0
     76 C0000076              -1                       0
     77 C0000077              -1                       0
     78 C0000078              -1                       0
     79 C0000079               0                       0
     80 C0000080              -1                       0
     81 C0000081              -1                       0
      0 X0000000            1000                       0
      1 X0000001               0                      24
      2 X0000002               0                      80
      3 X0000003            1000                     -24
      4 X0000004             500                       0
      5 X0000005             100                       0
      6 X0000006               0                     -24
      7 X0000007             500                       0
      8 X0000008             100                       0
      9 X0000009               0                       0
     10 X0000010             500                       0
     11 X0000011             100                       0
     12 X0000012               1                       0
     13 X0000013               0                       0
     14 X0000014               0                       0
     15 X0000015               1                       0
     16 X0000016               1                       0
     17 X0000017               1                    5600
     18 X0000018               0                       0
     19 X0000019               1                       0
     20 X0000020               1                    5600
     21 X0000021               0                  -24000
     22 X0000022               1                       0
     23 X0000023               1                    5600
     24 X0000024               1                   30000
     25 X0000025               0                    2200
     26 X0000026               0                    5000
     27 X0000027               0                   30000
     28 X0000028               1                    2200
     29 X0000029               1                    5000
     30 X0000030               0                   30000
     31 X0000031               0                    2200
     32 X0000032               0                    5000
     33 X0000033               0                   30000
     34 X0000034               0                    2200
     35 X0000035               0                    5000
